c FILE /home/rafael/Documents/HappySet/MIHS/inputs/happygen/output/graph_scale_free_k2_p0.2_v100_20241127_083752.txt
c SOURCE This is a scale-free graph formed for the happy graph colouring problem.
c DESCRIPTION It was generated using the problem generator of Rhyd Lewis
c
c GRAPH STATS
c Seed                             = 663027216
c Number of Nodes                  = 100
c Number of colours k              = 2
c Number of pre-assignments        = 20
c Number of links per new node     = 5
c Density                          = 0.0979798
c 
c The degrees of nodes 1 to 100, respectively, are as follows 
c [47, 44, 34, 29, 25, 24, 24, 24, 21, 19, 18, 18, 17, 17, 14, 14, 13, 13, 13, 12, 12, 11, 11, 11, 10, 10, 
c  10, 9, 9, 9, 9, 8, 8, 8, 8, 8, 8, 8, 8, 8, 8, 8, 7, 7, 7, 7, 7, 7, 7, 7, 7, 
c  7, 7, 7, 6, 6, 6, 6, 6, 6, 6, 6, 6, 6, 6, 6, 6, 6, 6, 6, 6, 5, 5, 5, 5, 5, 
c  5, 5, 5, 5, 5, 5, 5, 5, 5, 5, 5, 5, 5, 5, 5, 5, 5, 5, 5, 5, 5, 5, 5, 5] 
c  
p edge 100 485 2
e 1 2
e 1 5
e 1 6
e 1 7
e 1 8
e 1 9
e 1 10
e 1 11
e 1 12
e 1 13
e 1 15
e 1 16
e 1 19
e 1 20
e 1 21
e 1 24
e 1 25
e 1 26
e 1 28
e 1 32
e 1 33
e 1 34
e 1 36
e 1 38
e 1 40
e 1 42
e 1 43
e 1 46
e 1 48
e 1 52
e 1 57
e 1 58
e 1 59
e 1 64
e 1 68
e 1 69
e 1 70
e 1 74
e 1 77
e 1 81
e 1 82
e 1 83
e 1 84
e 1 85
e 1 93
e 1 98
e 1 100
e 2 4
e 2 5
e 2 6
e 2 7
e 2 8
e 2 9
e 2 10
e 2 11
e 2 12
e 2 13
e 2 15
e 2 16
e 2 19
e 2 20
e 2 22
e 2 23
e 2 25
e 2 26
e 2 28
e 2 29
e 2 32
e 2 34
e 2 35
e 2 38
e 2 43
e 2 49
e 2 50
e 2 51
e 2 55
e 2 58
e 2 66
e 2 69
e 2 74
e 2 75
e 2 77
e 2 78
e 2 79
e 2 87
e 2 91
e 2 92
e 2 95
e 2 97
e 2 100
e 3 4
e 3 5
e 3 6
e 3 9
e 3 11
e 3 13
e 3 14
e 3 17
e 3 18
e 3 32
e 3 34
e 3 35
e 3 36
e 3 38
e 3 40
e 3 42
e 3 44
e 3 46
e 3 48
e 3 50
e 3 51
e 3 52
e 3 55
e 3 56
e 3 58
e 3 60
e 3 61
e 3 62
e 3 65
e 3 72
e 3 79
e 3 86
e 3 93
e 3 100
e 4 5
e 4 11
e 4 12
e 4 19
e 4 21
e 4 26
e 4 27
e 4 31
e 4 33
e 4 34
e 4 36
e 4 39
e 4 45
e 4 54
e 4 62
e 4 63
e 4 65
e 4 69
e 4 70
e 4 73
e 4 87
e 4 88
e 4 89
e 4 90
e 4 93
e 4 94
e 4 100
e 5 7
e 5 8
e 5 11
e 5 13
e 5 17
e 5 20
e 5 23
e 5 24
e 5 25
e 5 27
e 5 28
e 5 39
e 5 45
e 5 54
e 5 62
e 5 64
e 5 67
e 5 74
e 5 78
e 5 82
e 5 91
e 6 7
e 6 8
e 6 9
e 6 13
e 6 16
e 6 20
e 6 21
e 6 22
e 6 27
e 6 29
e 6 32
e 6 33
e 6 43
e 6 51
e 6 57
e 6 58
e 6 62
e 6 66
e 6 79
e 6 82
e 6 96
e 7 8
e 7 9
e 7 12
e 7 13
e 7 15
e 7 19
e 7 20
e 7 22
e 7 23
e 7 33
e 7 44
e 7 49
e 7 50
e 7 51
e 7 59
e 7 60
e 7 72
e 7 73
e 7 81
e 7 94
e 8 9
e 8 10
e 8 12
e 8 13
e 8 15
e 8 16
e 8 18
e 8 22
e 8 24
e 8 30
e 8 31
e 8 47
e 8 56
e 8 68
e 8 72
e 8 90
e 8 91
e 8 98
e 8 99
e 9 10
e 9 11
e 9 14
e 9 15
e 9 26
e 9 30
e 9 45
e 9 46
e 9 67
e 9 71
e 9 76
e 9 81
e 9 87
e 9 94
e 9 97
e 10 13
e 10 17
e 10 18
e 10 21
e 10 26
e 10 35
e 10 36
e 10 37
e 10 53
e 10 60
e 10 64
e 10 80
e 10 81
e 10 93
e 10 99
e 11 12
e 11 14
e 11 15
e 11 17
e 11 22
e 11 25
e 11 41
e 11 49
e 11 57
e 11 58
e 11 65
e 11 84
e 12 16
e 12 19
e 12 24
e 12 30
e 12 41
e 12 48
e 12 50
e 12 52
e 12 53
e 12 55
e 12 61
e 12 96
e 13 14
e 13 24
e 13 30
e 13 31
e 13 59
e 13 64
e 13 65
e 13 95
e 13 97
e 14 17
e 14 35
e 14 37
e 14 38
e 14 41
e 14 47
e 14 48
e 14 66
e 14 70
e 14 71
e 14 75
e 14 83
e 14 89
e 15 21
e 15 25
e 15 55
e 15 66
e 15 72
e 15 82
e 15 88
e 15 89
e 16 29
e 16 32
e 16 43
e 16 44
e 16 55
e 16 70
e 16 71
e 16 73
e 16 74
e 17 18
e 17 23
e 17 25
e 17 29
e 17 43
e 17 48
e 17 63
e 17 72
e 18 23
e 18 25
e 18 28
e 18 39
e 18 42
e 18 45
e 18 54
e 18 61
e 18 80
e 19 33
e 19 40
e 19 49
e 19 60
e 19 75
e 19 76
e 19 79
e 19 90
e 20 34
e 20 44
e 20 46
e 20 53
e 20 56
e 20 63
e 20 92
e 21 28
e 21 36
e 21 47
e 21 49
e 21 77
e 21 84
e 21 93
e 22 47
e 22 52
e 22 56
e 22 60
e 22 74
e 22 94
e 23 30
e 23 38
e 23 47
e 23 63
e 23 76
e 23 85
e 24 44
e 24 53
e 24 57
e 24 64
e 24 83
e 24 90
e 25 42
e 25 84
e 25 98
e 26 35
e 26 50
e 26 51
e 26 73
e 26 85
e 27 33
e 27 40
e 27 61
e 27 62
e 27 71
e 27 77
e 27 99
e 28 37
e 28 57
e 28 75
e 28 76
e 29 37
e 29 56
e 29 59
e 29 68
e 29 78
e 30 42
e 30 46
e 30 53
e 30 97
e 31 37
e 31 45
e 31 71
e 31 79
e 31 83
e 31 91
e 32 56
e 32 69
e 32 73
e 33 81
e 33 100
e 34 37
e 34 41
e 34 85
e 35 41
e 35 77
e 35 95
e 36 75
e 36 89
e 36 98
e 37 52
e 37 87
e 38 40
e 38 61
e 38 85
e 39 45
e 39 48
e 39 78
e 39 84
e 39 89
e 40 68
e 40 82
e 40 96
e 41 80
e 41 88
e 41 98
e 42 65
e 42 68
e 42 80
e 43 45
e 43 96
e 44 59
e 44 61
e 46 86
e 46 99
e 47 86
e 47 92
e 48 90
e 49 63
e 49 88
e 50 67
e 50 80
e 51 66
e 51 86
e 52 67
e 52 78
e 53 67
e 53 86
e 54 60
e 54 64
e 54 92
e 54 95
e 55 88
e 57 91
e 58 76
e 59 92
e 62 69
e 63 87
e 65 70
e 66 97
e 67 96
e 68 83
e 69 94
e 70 95
e 71 99
n 6 1
n 12 2
n 29 1
n 39 2
n 47 2
n 51 1
n 57 1
n 61 2
n 67 1
n 68 1
n 69 1
n 70 2
n 72 1
n 75 1
n 81 1
n 84 2
n 87 2
n 88 1
n 90 1
n 92 2
